85
Time limit set to 60 seconds
Running CP solver
/home/omastto1/General-Optimization-Solver/src/solvers/mmrcpsp.py:42(stream:108:6): Warning: Cumulative expression 'pulse': height is zero, expression is zero everywhere.
                                                                                               VarCumulAtom_149 = pulse(task_0_mode_0, 0)
/home/omastto1/General-Optimization-Solver/src/solvers/mmrcpsp.py:42(stream:108:1252): Warning: Cumulative expression 'pulse': height is zero, expression is zero everywhere.
                                                                                                  VarCumulAtom_198 = pulse(task_17_mode_0, 0)
/home/omastto1/General-Optimization-Solver/src/solvers/mmrcpsp.py:42(stream:109:6): Warning: Cumulative expression 'pulse': height is zero, expression is zero everywhere.
                                                                                               VarCumulAtom_202 = pulse(task_0_mode_0, 0)
/home/omastto1/General-Optimization-Solver/src/solvers/mmrcpsp.py:42(stream:109:1253): Warning: Cumulative expression 'pulse': height is zero, expression is zero everywhere.
                                                                                                  VarCumulAtom_251 = pulse(task_17_mode_0, 0)
 ! --------------------------------------------------- CP Optimizer 20.1.0.0 --
 ! Minimization problem - 69 variables, 51 constraints
 ! TimeLimit            = 60
 ! Workers              = 14
 ! LogVerbosity         = Terse
 ! Initial process time : 0.00s (0.00s extraction + 0.00s propagation)
 !  . Log search space  : 158.5 (before), 158.5 (after)
 !  . Memory usage      : 754.6 kB (before), 754.6 kB (after)
 ! Using parallel search with 14 workers.
 ! ----------------------------------------------------------------------------
 !          Best Branches  Non-fixed    W       Branch decision
                        0         69                 -
 + New bound is 28
 ! Using iterative diving.
 ! Using temporal relaxation.
 *            41       45  0.24s        1      (gap is 31.71%)
 *            40      112  0.24s        1      (gap is 30.00%)
 *            39      152  0.24s        1      (gap is 28.21%)
 *            38      192  0.24s        1      (gap is 26.32%)
 *            36      246  0.24s        1      (gap is 22.22%)
 *            33      286  0.24s        1      (gap is 15.15%)
 *            32      328  0.24s        1      (gap is 12.50%)
 *            31      406  0.24s        1      (gap is 9.68%)
 *            29      425  0.24s        1      (gap is 3.45%)
 *            28      455  0.24s        1      (gap is 0.00%)
 ! ----------------------------------------------------------------------------
 ! Search completed, 10 solutions found.
 ! Best objective         : 28 (optimal - effective tol. is 0)
 ! Best bound             : 28
 ! ----------------------------------------------------------------------------
 ! Number of branches     : 55675
 ! Number of fails        : 1471
 ! Total memory usage     : 9.5 MB (9.4 MB CP Optimizer + 0.1 MB Concert)
 ! Time spent in solve    : 0.25s (0.25s engine + 0.00s extraction)
 ! Search speed (br. / s) : 222700.0
 ! ----------------------------------------------------------------------------
task_0: (start=0, end=0, size=0, length=0)
Task 0 is scheduled in mode 0 from 0 to 0
task_1: (start=0, end=2, size=2, length=2)
Task 1 is scheduled in mode 1 from 0 to 2
task_2: (start=0, end=2, size=2, length=2)
Task 2 is scheduled in mode 0 from 0 to 2
task_3: (start=0, end=8, size=8, length=8)
Task 3 is scheduled in mode 0 from 0 to 8
task_4: (start=2, end=11, size=9, length=9)
Task 4 is scheduled in mode 1 from 2 to 11
task_5: (start=2, end=9, size=7, length=7)
Task 5 is scheduled in mode 1 from 2 to 9
task_6: (start=8, end=9, size=1, length=1)
Task 6 is scheduled in mode 0 from 8 to 9
task_7: (start=9, end=15, size=6, length=6)
Task 7 is scheduled in mode 0 from 9 to 15
task_8: (start=15, end=16, size=1, length=1)
Task 8 is scheduled in mode 0 from 15 to 16
task_9: (start=11, end=17, size=6, length=6)
Task 9 is scheduled in mode 1 from 11 to 17
task_10: (start=9, end=19, size=10, length=10)
Task 10 is scheduled in mode 2 from 9 to 19
task_11: (start=17, end=24, size=7, length=7)
Task 11 is scheduled in mode 1 from 17 to 24
task_12: (start=9, end=12, size=3, length=3)
Task 12 is scheduled in mode 0 from 9 to 12
task_13: (start=16, end=22, size=6, length=6)
Task 13 is scheduled in mode 0 from 16 to 22
task_14: (start=24, end=27, size=3, length=3)
Task 14 is scheduled in mode 0 from 24 to 27
task_15: (start=22, end=28, size=6, length=6)
Task 15 is scheduled in mode 2 from 22 to 28
task_16: (start=19, end=22, size=3, length=3)
Task 16 is scheduled in mode 1 from 19 to 22
task_17: (start=28, end=28, size=0, length=0)
Task 17 is scheduled in mode 0 from 28 to 28
Optimal solution found
Objective value: 28
Solution is optimal.
